c  Bad case for Goldberg
c 128 vertices
p max 387 513
n 1 s
n 387 t
a 1 2 128
a 2 130 128
a 2 129 128
a 2 128 128
a 2 127 128
a 2 126 128
a 2 125 128
a 2 124 128
a 2 123 128
a 2 122 128
a 2 121 128
a 2 120 128
a 2 119 128
a 2 118 128
a 2 117 128
a 2 116 128
a 2 115 128
a 2 114 128
a 2 113 128
a 2 112 128
a 2 111 128
a 2 110 128
a 2 109 128
a 2 108 128
a 2 107 128
a 2 106 128
a 2 105 128
a 2 104 128
a 2 103 128
a 2 102 128
a 2 101 128
a 2 100 128
a 2 99 128
a 2 98 128
a 2 97 128
a 2 96 128
a 2 95 128
a 2 94 128
a 2 93 128
a 2 92 128
a 2 91 128
a 2 90 128
a 2 89 128
a 2 88 128
a 2 87 128
a 2 86 128
a 2 85 128
a 2 84 128
a 2 83 128
a 2 82 128
a 2 81 128
a 2 80 128
a 2 79 128
a 2 78 128
a 2 77 128
a 2 76 128
a 2 75 128
a 2 74 128
a 2 73 128
a 2 72 128
a 2 71 128
a 2 70 128
a 2 69 128
a 2 68 128
a 2 67 128
a 2 66 128
a 2 65 128
a 2 64 128
a 2 63 128
a 2 62 128
a 2 61 128
a 2 60 128
a 2 59 128
a 2 58 128
a 2 57 128
a 2 56 128
a 2 55 128
a 2 54 128
a 2 53 128
a 2 52 128
a 2 51 128
a 2 50 128
a 2 49 128
a 2 48 128
a 2 47 128
a 2 46 128
a 2 45 128
a 2 44 128
a 2 43 128
a 2 42 128
a 2 41 128
a 2 40 128
a 2 39 128
a 2 38 128
a 2 37 128
a 2 36 128
a 2 35 128
a 2 34 128
a 2 33 128
a 2 32 128
a 2 31 128
a 2 30 128
a 2 29 128
a 2 28 128
a 2 27 128
a 2 26 128
a 2 25 128
a 2 24 128
a 2 23 128
a 2 22 128
a 2 21 128
a 2 20 128
a 2 19 128
a 2 18 128
a 2 17 128
a 2 16 128
a 2 15 128
a 2 14 128
a 2 13 128
a 2 12 128
a 2 11 128
a 2 10 128
a 2 9 128
a 2 8 128
a 2 7 128
a 2 6 128
a 2 5 128
a 2 4 128
a 2 3 128
a 3 131 1
a 4 132 1
a 5 133 1
a 6 134 1
a 7 135 1
a 8 136 1
a 9 137 1
a 10 138 1
a 11 139 1
a 12 140 1
a 13 141 1
a 14 142 1
a 15 143 1
a 16 144 1
a 17 145 1
a 18 146 1
a 19 147 1
a 20 148 1
a 21 149 1
a 22 150 1
a 23 151 1
a 24 152 1
a 25 153 1
a 26 154 1
a 27 155 1
a 28 156 1
a 29 157 1
a 30 158 1
a 31 159 1
a 32 160 1
a 33 161 1
a 34 162 1
a 35 163 1
a 36 164 1
a 37 165 1
a 38 166 1
a 39 167 1
a 40 168 1
a 41 169 1
a 42 170 1
a 43 171 1
a 44 172 1
a 45 173 1
a 46 174 1
a 47 175 1
a 48 176 1
a 49 177 1
a 50 178 1
a 51 179 1
a 52 180 1
a 53 181 1
a 54 182 1
a 55 183 1
a 56 184 1
a 57 185 1
a 58 186 1
a 59 187 1
a 60 188 1
a 61 189 1
a 62 190 1
a 63 191 1
a 64 192 1
a 65 193 1
a 66 194 1
a 67 195 1
a 68 196 1
a 69 197 1
a 70 198 1
a 71 199 1
a 72 200 1
a 73 201 1
a 74 202 1
a 75 203 1
a 76 204 1
a 77 205 1
a 78 206 1
a 79 207 1
a 80 208 1
a 81 209 1
a 82 210 1
a 83 211 1
a 84 212 1
a 85 213 1
a 86 214 1
a 87 215 1
a 88 216 1
a 89 217 1
a 90 218 1
a 91 219 1
a 92 220 1
a 93 221 1
a 94 222 1
a 95 223 1
a 96 224 1
a 97 225 1
a 98 226 1
a 99 227 1
a 100 228 1
a 101 229 1
a 102 230 1
a 103 231 1
a 104 232 1
a 105 233 1
a 106 234 1
a 107 235 1
a 108 236 1
a 109 237 1
a 110 238 1
a 111 239 1
a 112 240 1
a 113 241 1
a 114 242 1
a 115 243 1
a 116 244 1
a 117 245 1
a 118 246 1
a 119 247 1
a 120 248 1
a 121 249 1
a 122 250 1
a 123 251 1
a 124 252 1
a 125 253 1
a 126 254 1
a 127 255 1
a 128 256 1
a 129 257 1
a 130 258 1
a 131 259 128
a 132 259 128
a 133 259 128
a 134 259 128
a 135 259 128
a 136 259 128
a 137 259 128
a 138 259 128
a 139 259 128
a 140 259 128
a 141 259 128
a 142 259 128
a 143 259 128
a 144 259 128
a 145 259 128
a 146 259 128
a 147 259 128
a 148 259 128
a 149 259 128
a 150 259 128
a 151 259 128
a 152 259 128
a 153 259 128
a 154 259 128
a 155 259 128
a 156 259 128
a 157 259 128
a 158 259 128
a 159 259 128
a 160 259 128
a 161 259 128
a 162 259 128
a 163 259 128
a 164 259 128
a 165 259 128
a 166 259 128
a 167 259 128
a 168 259 128
a 169 259 128
a 170 259 128
a 171 259 128
a 172 259 128
a 173 259 128
a 174 259 128
a 175 259 128
a 176 259 128
a 177 259 128
a 178 259 128
a 179 259 128
a 180 259 128
a 181 259 128
a 182 259 128
a 183 259 128
a 184 259 128
a 185 259 128
a 186 259 128
a 187 259 128
a 188 259 128
a 189 259 128
a 190 259 128
a 191 259 128
a 192 259 128
a 193 259 128
a 194 259 128
a 195 259 128
a 196 259 128
a 197 259 128
a 198 259 128
a 199 259 128
a 200 259 128
a 201 259 128
a 202 259 128
a 203 259 128
a 204 259 128
a 205 259 128
a 206 259 128
a 207 259 128
a 208 259 128
a 209 259 128
a 210 259 128
a 211 259 128
a 212 259 128
a 213 259 128
a 214 259 128
a 215 259 128
a 216 259 128
a 217 259 128
a 218 259 128
a 219 259 128
a 220 259 128
a 221 259 128
a 222 259 128
a 223 259 128
a 224 259 128
a 225 259 128
a 226 259 128
a 227 259 128
a 228 259 128
a 229 259 128
a 230 259 128
a 231 259 128
a 232 259 128
a 233 259 128
a 234 259 128
a 235 259 128
a 236 259 128
a 237 259 128
a 238 259 128
a 239 259 128
a 240 259 128
a 241 259 128
a 242 259 128
a 243 259 128
a 244 259 128
a 245 259 128
a 246 259 128
a 247 259 128
a 248 259 128
a 249 259 128
a 250 259 128
a 251 259 128
a 252 259 128
a 253 259 128
a 254 259 128
a 255 259 128
a 256 259 128
a 257 259 128
a 258 259 128
a 259 260 128
a 260 261 128
a 261 262 128
a 262 263 128
a 263 264 128
a 264 265 128
a 265 266 128
a 266 267 128
a 267 268 128
a 268 269 128
a 269 270 128
a 270 271 128
a 271 272 128
a 272 273 128
a 273 274 128
a 274 275 128
a 275 276 128
a 276 277 128
a 277 278 128
a 278 279 128
a 279 280 128
a 280 281 128
a 281 282 128
a 282 283 128
a 283 284 128
a 284 285 128
a 285 286 128
a 286 287 128
a 287 288 128
a 288 289 128
a 289 290 128
a 290 291 128
a 291 292 128
a 292 293 128
a 293 294 128
a 294 295 128
a 295 296 128
a 296 297 128
a 297 298 128
a 298 299 128
a 299 300 128
a 300 301 128
a 301 302 128
a 302 303 128
a 303 304 128
a 304 305 128
a 305 306 128
a 306 307 128
a 307 308 128
a 308 309 128
a 309 310 128
a 310 311 128
a 311 312 128
a 312 313 128
a 313 314 128
a 314 315 128
a 315 316 128
a 316 317 128
a 317 318 128
a 318 319 128
a 319 320 128
a 320 321 128
a 321 322 128
a 322 323 128
a 323 324 128
a 324 325 128
a 325 326 128
a 326 327 128
a 327 328 128
a 328 329 128
a 329 330 128
a 330 331 128
a 331 332 128
a 332 333 128
a 333 334 128
a 334 335 128
a 335 336 128
a 336 337 128
a 337 338 128
a 338 339 128
a 339 340 128
a 340 341 128
a 341 342 128
a 342 343 128
a 343 344 128
a 344 345 128
a 345 346 128
a 346 347 128
a 347 348 128
a 348 349 128
a 349 350 128
a 350 351 128
a 351 352 128
a 352 353 128
a 353 354 128
a 354 355 128
a 355 356 128
a 356 357 128
a 357 358 128
a 358 359 128
a 359 360 128
a 360 361 128
a 361 362 128
a 362 363 128
a 363 364 128
a 364 365 128
a 365 366 128
a 366 367 128
a 367 368 128
a 368 369 128
a 369 370 128
a 370 371 128
a 371 372 128
a 372 373 128
a 373 374 128
a 374 375 128
a 375 376 128
a 376 377 128
a 377 378 128
a 378 379 128
a 379 380 128
a 380 381 128
a 381 382 128
a 382 383 128
a 383 384 128
a 384 385 128
a 385 386 128
a 386 387 128
